c description: Random 3-CNF over 16 variables and 48 clauses
p cnf 16 48
1 -10 -12 0
-3 6 -13 0
-1 9 -14 0
2 -9 -13 0
-6 -9 -15 0
-5 6 -15 0
-1 -3 12 0
3 12 13 0
-2 -3 -15 0
-3 6 -16 0
-4 -8 10 0
1 -7 -8 0
3 4 -14 0
-2 -3 -12 0
13 14 -15 0
-3 -4 -16 0
3 -4 7 0
3 11 15 0
4 -5 8 0
1 -9 13 0
-4 9 15 0
8 -14 15 0
-2 4 6 0
-1 -4 -6 0
-6 8 9 0
-7 9 -12 0
-1 2 7 0
6 7 9 0
-5 -6 11 0
8 14 16 0
-3 -4 -5 0
1 2 -7 0
-7 -14 15 0
-4 -12 14 0
-2 -12 15 0
3 -6 -7 0
-8 -9 15 0
9 -13 -14 0
5 6 -16 0
2 -4 -15 0
-3 -4 -8 0
-1 14 -16 0
-10 14 15 0
5 -13 -15 0
1 -10 -15 0
11 -12 -13 0
-4 6 -9 0
7 11 -12 0